000 000 000 000 000 000 000 -99 -99 -99 -99 -99 000 000 000 000 -99 -99 000 000 -99 -99 000 000 000 000 000 000 000 -99 000
000 000 000 000 000 000 000 000 -99 -99 -99 -99 -99 000 000 000 -99 -99 -99 000 -99 000 000 002 000 000 000 000 000 -99 000
000 000 000 000 000 000 000 000 000 000 -99 -99 -99 -99 000 000 -99 -99 -99 -99 -99 -99 000 010 002 000 000 000 000 -99 -99
000 000 000 000 000 000 000 000 000 000 -99 -99 000 -99 000 -99 -99 -99 -99 -99 000 -99 000 003 009 000 000 000 -99 -99 -99
000 000 000 000 000 000 000 000 000 -99 -99 -99 000 000 000 000 -99 -99 -99 -99 000 000 000 004 003 003 -99 -99 -99 -99 -99
000 000 000 000 000 000 000 000 000 000 -99 -99 000 -99 000 000 000 -99 -99 -99 000 000 000 000 001 001 -99 -99 -99 -99 -99
000 000 000 000 000 000 000 000 000 000 -99 -99 -99 000 000 000 000 000 -99 -99 000 -99 -99 000 000 001 -99 -99 -99 -99 -99
000 000 000 000 000 000 000 000 000 000 000 -99 -99 -99 -99 000 000 000 000 -99 000 000 -99 000 000 -99 -99 -99 -99 -99 -99
000 000 000 000 000 -99 000 000 -99 000 000 000 -99 -99 -99 -99 000 000 000 -99 000 -99 -99 000 000 000 000 000 -99 -99 -99
000 000 000 000 000 000 000 000 000 000 000 000 -99 -99 000 000 -99 000 000 -99 -99 -99 -99 000 000 000 000 000 -99 000 000
000 000 000 000 000 000 000 000 000 000 000 000 -99 -99 -99 000 000 -99 000 000 -99 -99 -99 000 000 -99 000 -99 000 000 000
000 000 000 000 000 000 000 000 000 000 000 000 -99 -99 -99 000 000 -99 000 000 -99 -99 -99 000 000 000 000 000 000 000 000
000 000 000 000 000 000 000 000 000 000 000 000 000 -99 -99 000 000 -99 000 000 -99 -99 -99 000 000 000 000 000 000 000 000
000 000 000 000 000 000 000 000 -99 -99 000 000 000 -99 -99 000 000 -99 000 000 -99 -99 -99 000 000 000 000 000 000 000 000
000 000 -99 000 000 000 000 000 -99 -99 -99 -99 000 000 -99 000 000 000 000 000 -99 -99 -99 000 000 000 000 000 000 000 000
000 -99 -99 000 000 000 000 000 -99 -99 -99 -99 -99 000 -99 000 000 000 000 -99 -99 -99 -99 000 000 000 000 000 000 000 -99
000 000 -99 000 000 000 000 000 000 -99 -99 -99 -99 000 -99 000 000 000 000 -99 -99 -99 -99 -99 000 000 000 000 000 000 000
000 000 000 -99 000 000 000 000 000 -99 -99 -99 -99 000 -99 000 000 000 -99 -99 -99 000 000 -99 -99 000 000 000 000 000 000
000 000 000 000 000 000 000 000 000 -99 -99 -99 -99 -99 000 000 000 000 000 -99 -99 000 000 -99 -99 -99 000 000 000 000 -99
000 000 000 000 000 000 000 000 000 -99 000 -99 -99 -99 000 000 000 000 000 -99 000 000 000 -99 -99 -99 -99 -99 -99 000 -99
000 000 000 000 000 000 -99 000 000 000 -99 -99 -99 -99 000 000 000 000 000 000 000 000 000 -99 -99 -99 -99 -99 -99 -99 -99
000 000 000 000 000 000 -99 000 000 000 -99 -99 -99 -99 000 000 000 000 000 000 000 000 000 -99 -99 -99 -99 -99 -99 -99 -99
000 000 000 000 000 000 -99 000 000 000 -99 -99 000 000 000 000 000 000 000 000 000 000 000 -99 -99 -99 -99 -99 -99 -99 -99
000 000 000 000 000 -99 000 000 000 000 -99 -99 000 000 000 000 000 000 000 000 000 000 000 -99 -99 -99 -99 -99 -99 -99 -99
000 000 000 000 000 000 -99 000 000 -99 -99 -99 000 000 000 000 000 000 000 000 000 000 000 -99 -99 -99 -99 -99 -99 -99 -99
000 000 000 000 000 000 000 000 000 -99 -99 -99 000 000 000 000 000 000 000 000 000 000 000 -99 -99 -99 -99 -99 -99 -99 -99
000 000 000 000 000 000 000 000 000 000 -99 -99 -99 000 000 000 000 000 000 000 000 000 -99 -99 -99 -99 -99 -99 -99 -99 -99
000 000 000 000 000 000 000 000 000 000 -99 -99 -99 -99 000 000 000 000 000 000 000 000 000 -99 -99 -99 -99 -99 -99 -99 -99
000 000 000 000 000 000 000 000 000 000 -99 -99 -99 000 000 000 000 000 000 000 000 000 -99 -99 -99 -99 -99 -99 -99 -99 -99
000 000 000 000 000 000 000 000 000 000 -99 -99 -99 000 000 000 000 000 000 000 000 000 -99 -99 -99 -99 -99 -99 -99 -99 -99
000 000 000 000 000 000 000 000 000 000 -99 -99 -99 000 000 000 000 000 000 000 000 000 -99 000 -99 -99 -99 -99 -99 -99 -99
000 000 000 000 000 000 000 000 000 000 000 -99 -99 000 -99 -99 000 000 000 000 -99 -99 -99 000 000 000 -99 -99 -99 -99 -99
000 000 000 000 000 000 000 000 000 000 000 -99 -99 -99 -99 000 000 000 000 -99 -99 -99 000 -99 000 000 -99 000 000 -99 000
000 000 000 000 000 000 000 000 000 000 -99 -99 -99 000 -99 000 000 000 -99 -99 -99 -99 000 000 000 000 000 000 000 000 000
000 000 000 000 000 000 000 000 000 000 -99 -99 -99 000 000 000 000 -99 -99 000 000 -99 000 000 000 000 000 000 000 000 000
000 000 000 000 000 000 000 000 000 000 -99 -99 000 000 000 000 000 -99 000 000 000 000 000 000 000 000 000 000 000 -99 -99
000 000 000 000 000 -99 -99 000 000 000 -99 -99 000 000 000 000 000 000 000 000 000 000 000 000 000 000 000 000 000 -99 -99
000 000 000 000 000 000 000 000 000 -99 -99 000 000 000 000 000 000 000 000 000 000 000 000 000 000 000 000 000 -99 -99 -99
000 000 000 -99 000 000 000 000 -99 -99 -99 000 000 000 000 000 000 000 -99 000 000 000 000 000 000 000 000 000 -99 -99 -99
000 -99 000 000 000 000 000 000 -99 -99 -99 000 000 000 000 000 000 000 -99 -99 000 -99 000 -99 -99 000 000 -99 -99 -99 -99
000 000 000 000 000 -99 000 000 -99 -99 000 000 000 000 000 000 000 -99 -99 -99 -99 -99 -99 -99 -99 000 000 -99 -99 -99 000
000 000 000 000 -99 -99 -99 000 -99 -99 000 000 000 000 000 000 -99 -99 -99 -99 -99 -99 -99 -99 000 -99 -99 -99 -99 000 000
000 000 -99 -99 -99 000 -99 000 -99 000 000 000 000 000 -99 000 -99 -99 000 000 000 -99 -99 -99 000 -99 -99 -99 -99 -99 -99
000 -99 -99 -99 -99 000 -99 -99 -99 000 000 000 000 000 000 000 000 000 000 000 000 -99 -99 -99 000 -99 -99 -99 -99 -99 -99
000 000 -99 -99 000 -99 -99 -99 -99 000 000 000 000 000 000 -99 -99 -99 000 000 000 -99 -99 -99 -99 -99 -99 -99 -99 -99 -99
000 -99 -99 -99 -99 -99 -99 -99 -99 -99 000 000 000 -99 000 -99 -99 000 000 000 -99 -99 000 000 -99 -99 -99 -99 -99 -99 -99
000 -99 -99 -99 -99 -99 -99 -99 -99 -99 000 000 000 000 000 -99 -99 -99 000 000 -99 000 000 000 -99 -99 -99 -99 -99 -99 -99
-99 -99 -99 -99 -99 -99 -99 -99 -99 -99 -99 -99 000 000 000 -99 -99 000 000 -99 -99 000 000 000 -99 -99 -99 -99 000 -99 -99
-99 -99 -99 -99 -99 -99 -99 -99 -99 -99 -99 000 000 000 -99 -99 -99 000 -99 -99 000 000 000 -99 -99 -99 -99 -99 000 -99 -99
-99 -99 -99 -99 -99 -99 -99 -99 -99 -99 -99 -99 000 -99 -99 -99 -99 000 -99 -99 000 000 -99 -99 -99 -99 -99 000 -99 -99 -99
-99 -99 -99 -99 -99 -99 -99 -99 -99 -99 -99 -99 -99 -99 -99 -99 -99 -99 -99 -99 000 000 -99 -99 -99 -99 -99 -99 -99 -99 -99
-99 -99 -99 -99 -99 -99 -99 -99 -99 -99 -99 -99 -99 -99 -99 -99 -99 -99 -99 000 000 -99 -99 -99 -99 -99 -99 -99 -99 -99 -99
-99 -99 -99 -99 -99 -99 -99 -99 -99 -99 -99 -99 -99 000 -99 -99 -99 000 000 000 000 -99 -99 -99 -99 -99 -99 -99 -99 -99 -99
-99 -99 -99 -99 -99 -99 -99 -99 -99 -99 -99 -99 -99 -99 -99 -99 000 000 000 -99 -99 000 000 000 000 -99 -99 -99 -99 -99 -99
-99 -99 -99 -99 -99 -99 -99 -99 -99 -99 -99 -99 -99 -99 -99 000 000 000 -99 -99 000 000 000 000 -99 -99 -99 -99 -99 -99 -99
